NAME : portcgen-30-20
COMMENT : portcgen N=30, seed=20
TYPE : TSP
DIMENSION : 30
EDGE_WEIGHT_TYPE : EUC_2D
NODE_COORD_SECTION
1 265209 -75374
2 -104592 -19983
3 -501662 206165
4 151402 33476
5 91913 359758
6 -84923 -220721
7 3671 8618
8 -52071 -703636
9 91573 186978
10 114952 -103354
11 -115550 24622
12 74977 -131297
13 -192888 -108469
14 -133686 74644
15 377837 -350933
16 104021 -152907
17 160532 152271
18 63278 129536
19 -84720 -200030
20 116371 -170368
21 -102523 181743
22 -130300 -392451
23 -157233 -60115
24 -12669 -194826
25 76624 -93740
26 431267 -255453
27 -387876 38025
28 -165550 -144582
29 -94503 352438
30 114787 -117497
